(set-info :Origin "This instance was generated by: BanditFuzz-- an RL fuzzer for SMT solvers" )
(set-info :Author "Joe Scott, Fed Mora, Vijay Ganesh" )
(set-info :Contact "Joe Scott, joseph.scott@uwaterloo.ca")
(set-logic QF_BV)
(declare-const bool_0 Bool)
(declare-const bool_1 Bool)
(declare-const bool_2 Bool)
(declare-const bool_3 Bool)
(declare-const bool_4 Bool)
(declare-const bv_0 (_ BitVec 32))
(declare-const bv_1 (_ BitVec 32))
(declare-const bv_2 (_ BitVec 32))
(declare-const bv_3 (_ BitVec 32))
(declare-const bv_4 (_ BitVec 32))
(assert (bvule (bvsub (bvshl bv_4 bv_3) (bvxnor bv_4 #x888a03bd )) (bvsdiv (bvnor bv_1 #x3968d490 ) (bvsmod bv_4 bv_1))))
(assert (xor (and (and false false) (bvsgt bv_1 bv_3)) (xor (and true bool_3) (bvslt #x6044b810  bv_3))))
(assert (bvult (bvsdiv (bvadd bv_4 #x127acd4b ) (bvxnor bv_3 #x04334fe7 )) (bvshl (bvsdiv bv_3 bv_1) (bvurem #xbc29c9db  #x18bbed38 ))))
(assert (not (bvule (bvudiv #xbe850603  #xe2ea1950 ) (bvshl #xbd18cd5b  #x846dbd18 ))))
(assert (bvsgt (bvxor (bvand #x78e715ee  bv_0) (bvsdiv #x7394001a  bv_4)) (bvxor (bvnor bv_1 #x544a144b ) (bvsub bv_4 #x4e0b6c99 ))))
(check-sat)
(exit)
